138877
0,86,43,65,58,9,26,27,75,88,92,11,91,22,79,56,82,33,8,105,7,96,54,28,29,4,51,64,30,97,12,87,68,80,41,18,98,67,49,25,13,46,60,3,102,34,74,62,31,6,83,52,50,99,44,24,85,45,76,5,39,55,19,15,63,89,16,20,21,61,1,71,81,32,38,36,48,17,93,69,70,53,35,72,47,84,10,40,66,94,103,37,104,100,2,77,95,59,14,90,78,42,101,73,23,57,0